BFCZY              
   1.00000000000000     
     8.1997723714500008    0.0000000000000000    0.0000000000000000
     0.0000000000000000    8.1997723726000000    0.0000000000000000
     0.0000000000000000    0.0000000000000000    8.1997723715799999
   Ba   Y    Zr   Fe   Co   O
     8     1     1     3     3    24
Direct
 -0.0054866668760718  0.9850344917260830  0.9817577007117687
  0.0375117364314922  0.9211324593010414  0.5344082584677488
 -0.0328649740545132  0.5008570372180099  1.0107925432678866
 -0.0253777520649487  0.4999936482106466  0.5005455097587655
  0.4942741947201286  0.9998248945078616  1.0236209630692037
  0.5156191652186348  0.9821871296663331  0.4877935309092924
  0.5050795546761924  0.5054861443581949  0.9774585227081966
  0.5091304305311821  0.5254493228427624  0.5123119083129797
  0.7709494666329175  0.2818953183024229  0.2516851948031439
  0.2376311079755027  0.7504400807758548  0.2529237230159437
  0.2543469560473171  0.2421006169648418  0.2597348675876847
  0.2538675959498789  0.7205425329503883  0.7702215780734457
  0.7667052323431468  0.2663340373807450  0.7762487635332680
  0.2267507326393807  0.2494722361426837  0.7352805716345475
  0.7537773127468812  0.7624522214647458  0.2211590355646514
  0.7445187467665553  0.7610272193145786  0.7614008153102075
  0.2585966456532807  0.2509302971485035  0.9366213078471640
  0.2502569061938436  0.2636959114289853  0.5413123600525134
  0.2472631180535682  0.7342401709747174  1.0100408134122816
  0.2679407440775188  0.7367359725741726  0.4968536519272724
  0.7082539052282467  0.2803741747107936  0.9817267378920648
  0.7719801613357730  0.2667947637056221  0.5295317393700272
  0.7501652535750299  0.7967866582675963  0.9549632675903236
  0.7951696414041024  0.7786782643893799  0.5130012132508973
  0.0167744188546568  0.2272142657046369  0.2724883624859544
 -0.0032117454335449  0.2197824369108728  0.7740585441702275
  0.9795120411352741  0.7652988250500502  0.2367634431799493
  0.0219961824761585  0.7287652427229643  0.7672495127499251
  0.4968327775872037  0.2472310497657786  0.2271533172102675
  0.5371607167279692  0.7196307508256672  0.2105330524024867
  0.5137112337288949  0.7619285535793848  0.7597596266381604
  0.2497155937114951 -0.0164841160623935  0.2002555544365741
  0.2661903162978504 -0.0242770384350544  0.7229878786100451
  0.2373780403681340  0.4790141615535003  0.2498923246149549
  0.2810071192732609  0.4599954071890929  0.7589533160444026
  0.7549510296077256  0.9835926626734878  0.2445709672696743
  0.7334303455223320  0.0099576388030398  0.7454881619581682
  0.7760172153330966  0.5264328860743347  0.2719284234072715
  0.7755502224716021  0.5123992637923405  0.7603645610262325
  0.4791357603800000  0.2304703657500000  0.7466766779700000