BFCY                  
   1.00000000000000     
     8.2440055878000003    0.0000000000000000    0.0000000000000000
     0.0000000000000000    8.2440056312299994    0.0000000000000000
     0.0000000000000000    0.0000000000000000    8.2440063265500001
   Ba   Y    Fe   Co   O 
     8     2     3     3    24
Direct
  0.9878210035053636  0.9907904410129206  0.9939823588156612
  0.9918386763120325  0.9947089695979773  0.5005544785867109
  0.9963534791795288  0.5105994142735157  0.9894296084044656
  0.0008216253703232  0.5064008888987719  0.5038257382241035
  0.5076433253660283  0.9925968923515579  0.9986703877761434
  0.5034678485852635  0.9970251122290971  0.4955457596548751
  0.5035628455746811  0.5116934770535869  0.9962988428663788
  0.4994013450065994  0.5074066195033873  0.4963944519305510
  0.2473594698804099  0.7530398811819651  0.2479476917526797
  0.7495983982969260  0.2546066106168484  0.2466782650871782
  0.2496114291128193  0.2512398754656101  0.2280276260312650
  0.2638090879966027  0.7545445758821303  0.7486831411556000
  0.7685062056344906  0.2543718113844776  0.7466775554022750
  0.2247120170821576  0.2222830234679183  0.7558718330054952
  0.7492885271233156  0.7515724419663876  0.2498654380437176
  0.7428270246093163  0.7407269247502832  0.7249303152083278
  0.2647988852475955  0.2489906596529798  0.9650856392666852
  0.2737406663068054  0.2499534152467632  0.5553577310258895
  0.2473375370290407  0.7575408643655267  0.9781330319061122
  0.2475211913527298  0.7594973232004250  0.5193218883941239
  0.7332174857855431  0.2564484191455093  0.9738924822966906
  0.7381221947474579  0.2562396178127542  0.5192567086444809
  0.7485482029845026  0.7513610313546282  0.0353375391405609
  0.7472687008071325  0.7518682203521388  0.4800198945475735
  0.0224291023653259  0.2514507394481831  0.2426063291488154
  0.0048845227115709  0.2657608778804885  0.7512375481653040
  0.9824026372744293  0.7534048770695859  0.2533287438638247
  0.9557409864524273  0.7546010364420430  0.7489163558292266
  0.4755417222130323  0.2527229240354051  0.2451823637233382
  0.5136389359395386  0.7512967983695572  0.2514124065697390
  0.5242561433733050  0.7563149334164355  0.7478751079414943
  0.2487632058513611  0.0259879683322102  0.2460593271141250
  0.2517377377502969  0.9909216437440050  0.7535795059024734
  0.2478796583480825  0.4784547134387442  0.2448032791888455
  0.2543275351814684  0.5354107939301399  0.7490844604707919
  0.7492352142107241  0.9870293894528884  0.2515063565593119
  0.7372710863056375  0.0299539973225119  0.7467453759225763
  0.7502908909965760  0.5191502935027258  0.2516060295511788
  0.7362610112998538  0.4885091904660975  0.7466479543134362
  0.4791357603800000  0.2564484191455093  0.7466766779700000