BFCZ                    
   1.00000000000000     
     8.1701721316599993    0.0000000000000000    0.0000000000000000
     0.0000000000000000    8.1701710777599992    0.0000000000000000
     0.0000000000000000    0.0000000000000000    8.1701711887599995
   Ba   Zr   Fe   Co   O
     8     2     3     3    24
Direct
  0.0024478979173028  0.9940108590851261  0.9953914986944107
  0.9978173788592070  0.9897086231609658  0.5137912072588484
  0.0025112096887431  0.4987018039546454  0.9959535152797112
  0.9976870639336164  0.5031583636636259  0.5133758888334151
  0.4968628290907495  0.9902764939557415  0.0002555645164154
  0.5012131837888975  0.9857647244960994  0.5081444310038392
  0.4971981426625013  0.5031328647947678  0.0009635786199859
  0.5012117301096048  0.5074415855209140  0.5077270871213665
  0.2464991040909700  0.7469126616472597  0.2540101360617870
  0.7477910982027359  0.2462691824263151  0.2548279988928059
  0.2507477589333560  0.2468037694187145  0.2757738481467547
  0.2492591404432682  0.7429892903255356  0.7537238499773710
  0.7701733492484326  0.2470065150022860  0.7550587483016908
  0.2357136726744029  0.2452557855119088  0.7494692182468796
  0.7504981726920892  0.7465407746818162  0.2394170908306990
  0.7472716657154889  0.7455990767521110  0.7587698581703122
  0.2727923990231292  0.2475303988707458  0.9593897197150696
  0.2646469578793730  0.2474039549080672  0.5276959644169128
  0.2486041359696050  0.7474348271198713  0.9966281121597732
  0.2482178631350439  0.7475190576093522  0.5103694799004038
  0.7395535404023351  0.2469033464675662 -0.0010266289396171
  0.7363815937193048  0.2469341660703032  0.5114056361101247
  0.7507869844028776  0.7464872127783709  0.9796050808145030
  0.7508426445858104  0.7465653285735718  0.5436155454071392
  0.0038822546684656  0.2467047377847646  0.2574399363316208
  0.0001310948919016  0.2479588204109920  0.7515806021533498
  0.9932201416802426  0.7469874366660224  0.2513826431994577
 -0.0004094428395259  0.7466571962739450  0.7575694226533084
  0.4926851407677924  0.2469878665836692  0.2546972447047782
  0.5036723452631120  0.7466861703246181  0.2518948559246671
  0.5008618280696913  0.7469309206106495  0.7569705091629663
  0.2473312105933671  0.0063343970293767  0.2542268505309246
  0.2574541717701218  0.0059940103441723  0.7482214140173076
  0.2471357576929601  0.4874840313088409  0.2541972079641464
  0.2558114837043082  0.4911491530115381  0.7488058871576440
  0.7495590262748493  0.9794370154368145  0.2532436004476072
  0.7353826393363309  0.0232070086710533  0.7562242615567037
  0.7495749920178119  0.5141974262379216  0.2533661508344731
  0.7347530976519684  0.4711834609027660  0.7562779150154283
  0.4791357603800000  0.2304703657500000  0.7466766779700000